MARKOV
120
2 2 2 2 2 2 2 2 2 2 2 2 2 2 2 2 2 2 2 2 2 2 2 2 2 2 2 2 2 2 2 2 2 2 2 2 2 2 2 2 2 2 2 2 2 2 2 2 2 2 2 2 2 2 2 2 2 2 2 2 2 2 2 2 2 2 2 2 2 2 2 2 2 2 2 2 2 2 2 2 2 2 2 2 2 2 2 2 2 2 2 2 2 2 2 2 2 2 2 2 2 2 2 2 2 2 2 2 2 2 2 2 2 2 2 2 2 2 2 2 
230
1 110
1 111
1 112
1 113
1 114
1 115
1 116
1 117
1 118
1 119
1 100
1 101
1 102
1 103
1 104
1 105
1 106
1 107
1 108
1 109
1 0
1 10
1 20
1 30
1 40
1 50
1 60
1 70
1 80
1 90
1 1
1 11
1 21
1 31
1 41
1 51
1 61
1 71
1 81
1 91
1 2
1 12
1 22
1 32
1 42
1 52
1 62
1 72
1 82
1 92
1 3
1 13
1 23
1 33
1 43
1 53
1 63
1 73
1 83
1 93
1 4
1 14
1 24
1 34
1 44
1 54
1 64
1 74
1 84
1 94
1 5
1 15
1 25
1 35
1 45
1 55
1 65
1 75
1 85
1 95
1 6
1 16
1 26
1 36
1 46
1 56
1 66
1 76
1 86
1 96
1 7
1 17
1 27
1 37
1 47
1 57
1 67
1 77
1 87
1 97
1 8
1 18
1 28
1 38
1 48
1 58
1 68
1 78
1 88
1 98
1 9
1 19
1 29
1 39
1 49
1 59
1 69
1 79
1 89
1 99
2 100 110
2 101 111
2 102 112
2 103 113
2 104 114
2 105 115
2 106 116
2 107 117
2 108 118
2 109 119
2 0 100
3 10 101 100
3 20 102 100
3 30 103 100
3 40 104 100
3 50 105 100
3 60 106 100
3 70 107 100
3 80 108 100
3 90 109 100
3 1 100 101
2 11 101
3 21 102 101
3 31 103 101
3 41 104 101
3 51 105 101
3 61 106 101
3 71 107 101
3 81 108 101
3 91 109 101
3 2 100 102
3 12 101 102
2 22 102
3 32 103 102
3 42 104 102
3 52 105 102
3 62 106 102
3 72 107 102
3 82 108 102
3 92 109 102
3 3 100 103
3 13 101 103
3 23 102 103
2 33 103
3 43 104 103
3 53 105 103
3 63 106 103
3 73 107 103
3 83 108 103
3 93 109 103
3 4 100 104
3 14 101 104
3 24 102 104
3 34 103 104
2 44 104
3 54 105 104
3 64 106 104
3 74 107 104
3 84 108 104
3 94 109 104
3 5 100 105
3 15 101 105
3 25 102 105
3 35 103 105
3 45 104 105
2 55 105
3 65 106 105
3 75 107 105
3 85 108 105
3 95 109 105
3 6 100 106
3 16 101 106
3 26 102 106
3 36 103 106
3 46 104 106
3 56 105 106
2 66 106
3 76 107 106
3 86 108 106
3 96 109 106
3 7 100 107
3 17 101 107
3 27 102 107
3 37 103 107
3 47 104 107
3 57 105 107
3 67 106 107
2 77 107
3 87 108 107
3 97 109 107
3 8 100 108
3 18 101 108
3 28 102 108
3 38 103 108
3 48 104 108
3 58 105 108
3 68 106 108
3 78 107 108
2 88 108
3 98 109 108
3 9 100 109
3 19 101 109
3 29 102 109
3 39 103 109
3 49 104 109
3 59 105 109
3 69 106 109
3 79 107 109
3 89 108 109
2 99 109

2
1.000000 9.974182
2
1.000000 9.974182
2
1.000000 9.974182
2
1.000000 9.974182
2
1.000000 9.974182
2
1.000000 9.974182
2
1.000000 9.974182
2
1.000000 9.974182
2
1.000000 9.974182
2
1.000000 9.974182
2
1.000000 4.055200
2
1.000000 4.055200
2
1.000000 4.055200
2
1.000000 4.055200
2
1.000000 4.055200
2
1.000000 4.055200
2
1.000000 4.055200
2
1.000000 4.055200
2
1.000000 4.055200
2
1.000000 4.055200
2
1.000000 7.389056
2
1.000000 7.389056
2
1.000000 7.389056
2
1.000000 7.389056
2
1.000000 7.389056
2
1.000000 7.389056
2
1.000000 7.389056
2
1.000000 7.389056
2
1.000000 7.389056
2
1.000000 7.389056
2
1.000000 7.389056
2
1.000000 7.389056
2
1.000000 7.389056
2
1.000000 7.389056
2
1.000000 7.389056
2
1.000000 7.389056
2
1.000000 7.389056
2
1.000000 7.389056
2
1.000000 7.389056
2
1.000000 7.389056
2
1.000000 7.389056
2
1.000000 7.389056
2
1.000000 7.389056
2
1.000000 7.389056
2
1.000000 7.389056
2
1.000000 7.389056
2
1.000000 7.389056
2
1.000000 7.389056
2
1.000000 7.389056
2
1.000000 7.389056
2
1.000000 7.389056
2
1.000000 7.389056
2
1.000000 7.389056
2
1.000000 7.389056
2
1.000000 7.389056
2
1.000000 7.389056
2
1.000000 7.389056
2
1.000000 7.389056
2
1.000000 7.389056
2
1.000000 7.389056
2
1.000000 7.389056
2
1.000000 7.389056
2
1.000000 7.389056
2
1.000000 7.389056
2
1.000000 7.389056
2
1.000000 7.389056
2
1.000000 7.389056
2
1.000000 7.389056
2
1.000000 7.389056
2
1.000000 7.389056
2
1.000000 7.389056
2
1.000000 7.389056
2
1.000000 7.389056
2
1.000000 7.389056
2
1.000000 7.389056
2
1.000000 7.389056
2
1.000000 7.389056
2
1.000000 7.389056
2
1.000000 7.389056
2
1.000000 7.389056
2
1.000000 7.389056
2
1.000000 7.389056
2
1.000000 7.389056
2
1.000000 7.389056
2
1.000000 7.389056
2
1.000000 7.389056
2
1.000000 7.389056
2
1.000000 7.389056
2
1.000000 7.389056
2
1.000000 7.389056
2
1.000000 7.389056
2
1.000000 7.389056
2
1.000000 7.389056
2
1.000000 7.389056
2
1.000000 7.389056
2
1.000000 7.389056
2
1.000000 7.389056
2
1.000000 7.389056
2
1.000000 7.389056
2
1.000000 7.389056
2
1.000000 7.389056
2
1.000000 7.389056
2
1.000000 7.389056
2
1.000000 7.389056
2
1.000000 7.389056
2
1.000000 7.389056
2
1.000000 7.389056
2
1.000000 7.389056
2
1.000000 7.389056
2
1.000000 7.389056
2
1.000000 7.389056
2
1.000000 7.389056
2
1.000000 7.389056
2
1.000000 7.389056
2
1.000000 7.389056
2
1.000000 7.389056
2
1.000000 7.389056
2
1.000000 7.389056
2
1.000000 7.389056
2
1.000000 7.389056
4
4.481689 4.481689 1.000000 4.481689
4
4.481689 4.481689 1.000000 4.481689
4
4.481689 4.481689 1.000000 4.481689
4
4.481689 4.481689 1.000000 4.481689
4
4.481689 4.481689 1.000000 4.481689
4
4.481689 4.481689 1.000000 4.481689
4
4.481689 4.481689 1.000000 4.481689
4
4.481689 4.481689 1.000000 4.481689
4
4.481689 4.481689 1.000000 4.481689
4
4.481689 4.481689 1.000000 4.481689
4
3.004166 3.004166 3.004166 3.004166
8
3.004166 3.004166 1.000000 3.004166 1.000000 3.004166 3.004166 3.004166
8
3.004166 3.004166 1.000000 3.004166 1.000000 3.004166 3.004166 3.004166
8
3.004166 3.004166 1.000000 3.004166 1.000000 3.004166 3.004166 3.004166
8
3.004166 3.004166 1.000000 3.004166 1.000000 3.004166 3.004166 3.004166
8
3.004166 3.004166 1.000000 3.004166 1.000000 3.004166 3.004166 3.004166
8
3.004166 3.004166 1.000000 3.004166 1.000000 3.004166 3.004166 3.004166
8
3.004166 3.004166 1.000000 3.004166 1.000000 3.004166 3.004166 3.004166
8
3.004166 3.004166 1.000000 3.004166 1.000000 3.004166 3.004166 3.004166
8
3.004166 3.004166 1.000000 3.004166 1.000000 3.004166 3.004166 3.004166
8
3.004166 3.004166 1.000000 3.004166 1.000000 3.004166 3.004166 3.004166
4
3.004166 3.004166 3.004166 3.004166
8
3.004166 3.004166 1.000000 3.004166 1.000000 3.004166 3.004166 3.004166
8
3.004166 3.004166 1.000000 3.004166 1.000000 3.004166 3.004166 3.004166
8
3.004166 3.004166 1.000000 3.004166 1.000000 3.004166 3.004166 3.004166
8
3.004166 3.004166 1.000000 3.004166 1.000000 3.004166 3.004166 3.004166
8
3.004166 3.004166 1.000000 3.004166 1.000000 3.004166 3.004166 3.004166
8
3.004166 3.004166 1.000000 3.004166 1.000000 3.004166 3.004166 3.004166
8
3.004166 3.004166 1.000000 3.004166 1.000000 3.004166 3.004166 3.004166
8
3.004166 3.004166 1.000000 3.004166 1.000000 3.004166 3.004166 3.004166
8
3.004166 3.004166 1.000000 3.004166 1.000000 3.004166 3.004166 3.004166
8
3.004166 3.004166 1.000000 3.004166 1.000000 3.004166 3.004166 3.004166
4
3.004166 3.004166 3.004166 3.004166
8
3.004166 3.004166 1.000000 3.004166 1.000000 3.004166 3.004166 3.004166
8
3.004166 3.004166 1.000000 3.004166 1.000000 3.004166 3.004166 3.004166
8
3.004166 3.004166 1.000000 3.004166 1.000000 3.004166 3.004166 3.004166
8
3.004166 3.004166 1.000000 3.004166 1.000000 3.004166 3.004166 3.004166
8
3.004166 3.004166 1.000000 3.004166 1.000000 3.004166 3.004166 3.004166
8
3.004166 3.004166 1.000000 3.004166 1.000000 3.004166 3.004166 3.004166
8
3.004166 3.004166 1.000000 3.004166 1.000000 3.004166 3.004166 3.004166
8
3.004166 3.004166 1.000000 3.004166 1.000000 3.004166 3.004166 3.004166
8
3.004166 3.004166 1.000000 3.004166 1.000000 3.004166 3.004166 3.004166
8
3.004166 3.004166 1.000000 3.004166 1.000000 3.004166 3.004166 3.004166
4
3.004166 3.004166 3.004166 3.004166
8
3.004166 3.004166 1.000000 3.004166 1.000000 3.004166 3.004166 3.004166
8
3.004166 3.004166 1.000000 3.004166 1.000000 3.004166 3.004166 3.004166
8
3.004166 3.004166 1.000000 3.004166 1.000000 3.004166 3.004166 3.004166
8
3.004166 3.004166 1.000000 3.004166 1.000000 3.004166 3.004166 3.004166
8
3.004166 3.004166 1.000000 3.004166 1.000000 3.004166 3.004166 3.004166
8
3.004166 3.004166 1.000000 3.004166 1.000000 3.004166 3.004166 3.004166
8
3.004166 3.004166 1.000000 3.004166 1.000000 3.004166 3.004166 3.004166
8
3.004166 3.004166 1.000000 3.004166 1.000000 3.004166 3.004166 3.004166
8
3.004166 3.004166 1.000000 3.004166 1.000000 3.004166 3.004166 3.004166
8
3.004166 3.004166 1.000000 3.004166 1.000000 3.004166 3.004166 3.004166
4
3.004166 3.004166 3.004166 3.004166
8
3.004166 3.004166 1.000000 3.004166 1.000000 3.004166 3.004166 3.004166
8
3.004166 3.004166 1.000000 3.004166 1.000000 3.004166 3.004166 3.004166
8
3.004166 3.004166 1.000000 3.004166 1.000000 3.004166 3.004166 3.004166
8
3.004166 3.004166 1.000000 3.004166 1.000000 3.004166 3.004166 3.004166
8
3.004166 3.004166 1.000000 3.004166 1.000000 3.004166 3.004166 3.004166
8
3.004166 3.004166 1.000000 3.004166 1.000000 3.004166 3.004166 3.004166
8
3.004166 3.004166 1.000000 3.004166 1.000000 3.004166 3.004166 3.004166
8
3.004166 3.004166 1.000000 3.004166 1.000000 3.004166 3.004166 3.004166
8
3.004166 3.004166 1.000000 3.004166 1.000000 3.004166 3.004166 3.004166
8
3.004166 3.004166 1.000000 3.004166 1.000000 3.004166 3.004166 3.004166
4
3.004166 3.004166 3.004166 3.004166
8
3.004166 3.004166 1.000000 3.004166 1.000000 3.004166 3.004166 3.004166
8
3.004166 3.004166 1.000000 3.004166 1.000000 3.004166 3.004166 3.004166
8
3.004166 3.004166 1.000000 3.004166 1.000000 3.004166 3.004166 3.004166
8
3.004166 3.004166 1.000000 3.004166 1.000000 3.004166 3.004166 3.004166
8
3.004166 3.004166 1.000000 3.004166 1.000000 3.004166 3.004166 3.004166
8
3.004166 3.004166 1.000000 3.004166 1.000000 3.004166 3.004166 3.004166
8
3.004166 3.004166 1.000000 3.004166 1.000000 3.004166 3.004166 3.004166
8
3.004166 3.004166 1.000000 3.004166 1.000000 3.004166 3.004166 3.004166
8
3.004166 3.004166 1.000000 3.004166 1.000000 3.004166 3.004166 3.004166
8
3.004166 3.004166 1.000000 3.004166 1.000000 3.004166 3.004166 3.004166
4
3.004166 3.004166 3.004166 3.004166
8
3.004166 3.004166 1.000000 3.004166 1.000000 3.004166 3.004166 3.004166
8
3.004166 3.004166 1.000000 3.004166 1.000000 3.004166 3.004166 3.004166
8
3.004166 3.004166 1.000000 3.004166 1.000000 3.004166 3.004166 3.004166
8
3.004166 3.004166 1.000000 3.004166 1.000000 3.004166 3.004166 3.004166
8
3.004166 3.004166 1.000000 3.004166 1.000000 3.004166 3.004166 3.004166
8
3.004166 3.004166 1.000000 3.004166 1.000000 3.004166 3.004166 3.004166
8
3.004166 3.004166 1.000000 3.004166 1.000000 3.004166 3.004166 3.004166
8
3.004166 3.004166 1.000000 3.004166 1.000000 3.004166 3.004166 3.004166
8
3.004166 3.004166 1.000000 3.004166 1.000000 3.004166 3.004166 3.004166
8
3.004166 3.004166 1.000000 3.004166 1.000000 3.004166 3.004166 3.004166
4
3.004166 3.004166 3.004166 3.004166
8
3.004166 3.004166 1.000000 3.004166 1.000000 3.004166 3.004166 3.004166
8
3.004166 3.004166 1.000000 3.004166 1.000000 3.004166 3.004166 3.004166
8
3.004166 3.004166 1.000000 3.004166 1.000000 3.004166 3.004166 3.004166
8
3.004166 3.004166 1.000000 3.004166 1.000000 3.004166 3.004166 3.004166
8
3.004166 3.004166 1.000000 3.004166 1.000000 3.004166 3.004166 3.004166
8
3.004166 3.004166 1.000000 3.004166 1.000000 3.004166 3.004166 3.004166
8
3.004166 3.004166 1.000000 3.004166 1.000000 3.004166 3.004166 3.004166
8
3.004166 3.004166 1.000000 3.004166 1.000000 3.004166 3.004166 3.004166
8
3.004166 3.004166 1.000000 3.004166 1.000000 3.004166 3.004166 3.004166
8
3.004166 3.004166 1.000000 3.004166 1.000000 3.004166 3.004166 3.004166
4
3.004166 3.004166 3.004166 3.004166
8
3.004166 3.004166 1.000000 3.004166 1.000000 3.004166 3.004166 3.004166
8
3.004166 3.004166 1.000000 3.004166 1.000000 3.004166 3.004166 3.004166
8
3.004166 3.004166 1.000000 3.004166 1.000000 3.004166 3.004166 3.004166
8
3.004166 3.004166 1.000000 3.004166 1.000000 3.004166 3.004166 3.004166
8
3.004166 3.004166 1.000000 3.004166 1.000000 3.004166 3.004166 3.004166
8
3.004166 3.004166 1.000000 3.004166 1.000000 3.004166 3.004166 3.004166
8
3.004166 3.004166 1.000000 3.004166 1.000000 3.004166 3.004166 3.004166
8
3.004166 3.004166 1.000000 3.004166 1.000000 3.004166 3.004166 3.004166
8
3.004166 3.004166 1.000000 3.004166 1.000000 3.004166 3.004166 3.004166
8
3.004166 3.004166 1.000000 3.004166 1.000000 3.004166 3.004166 3.004166
4
3.004166 3.004166 3.004166 3.004166
